PROBLEM NAME: small_2_BoundedStronglyCorrelated_n14_m39_c1
KNAPSACK DATA TYPE:
DIMENSION: 14
NUMBER OF ITEMS: 39
CAPACITY OF KNAPSACK: 1742
MIN SPEED: 0.1
MAX SPEED: 1.0
RENTING RATIO: 1.0
EDGE_WEIGHT_TYPE: CEIL_2D
NODE_COORD_SECTION	(INDEX, X, Y): 
1	29	165
2	436	810
3	374	560
4	878	689
5	84	133
6	473	917
7	319	159
8	774	788
9	140	663
10	318	349
11	603	464
12	60	112
13	924	100
14	868	850
ITEMS SECTION	(INDEX, PROFIT, WEIGHT, ASSIGNED NODE NUMBER): 
1	1001	901	2
2	1031	931	2
3	754	654	2
4	1046	946	3
5	423	323	3
6	377	277	3
7	934	834	4
8	341	241	4
9	455	355	4
10	415	315	5
11	300	200	5
12	352	252	5
13	729	629	6
14	744	644	6
15	642	542	6
16	321	221	7
17	1073	973	7
18	166	66	7
19	578	478	8
20	764	664	8
21	249	149	8
22	517	417	9
23	1035	935	9
24	618	518	9
25	161	61	10
26	422	322	10
27	844	744	10
28	939	839	11
29	204	104	11
30	901	801	11
31	473	373	12
32	117	17	12
33	792	692	12
34	871	771	13
35	710	610	13
36	263	163	13
37	605	505	14
38	403	303	14
39	493	393	14
